qe/outputs/qe/qe_queries_cbrdelay/T=5,eliminate=[I_0,I_1,I_2,I_3,I_4,L_2,L_3,L_4,C,B,S_4].smt2
; benchmark generated from python API
(set-info :status unknown)
(declare-fun S_1 () Real)
(declare-fun L_1 () Real)
(declare-fun A_1 () Real)
(declare-fun S_2 () Real)
(declare-fun A_2 () Real)
(declare-fun S_3 () Real)
(declare-fun A_3 () Real)
(declare-fun L_0 () Real)
(declare-fun S_0 () Real)
(declare-fun A_0 () Real)
(declare-fun A_4 () Real)
(declare-fun loss_rate_tol () Real)
(assert
 (let (($x34 (>= L_0 0.0)))
 (let (($x103025 (<= 0.0 (+ (* (- (/ 1.0 4.0)) A_4) (* (/ 1.0 4.0) A_3) (* (- 1.0) A_0) S_1 L_0))))
 (let (($x103026 (not $x103025)))
 (let (($x103008 (<= 0.0 (+ (* (- (/ 1.0 5.0)) A_4) (* (/ 1.0 5.0) A_2) (* (- 1.0) A_0) S_1 L_0))))
 (let (($x103010 (not $x103008)))
 (let ((?x18334 (* (/ 1.0 2.0) loss_rate_tol)))
 (let ((?x926 (* (- 1.0) A_0)))
 (let ((?x2051 (* (/ 1.0 2.0) A_2)))
 (let ((?x2150 (* (- (/ 1.0 2.0)) A_4)))
 (let ((?x22009 (+ ?x2150 ?x2051 ?x926 S_1 L_0 ?x18334)))
 (let (($x100007 (not (<= 0.0 ?x22009))))
 (let ((?x498 (* (- 1.0) L_1)))
 (let ((?x395 (* (- 1.0) A_4)))
 (let (($x99554 (not (<= 0.0 (+ ?x395 A_3 A_1 ?x926 L_0 ?x498 loss_rate_tol)))))
 (let (($x98204 (not (<= 0.0 loss_rate_tol))))
 (let (($x97786 (<= 0.0 (+ (* (- (/ 1.0 6.0)) A_4) ?x926 (* (/ 7.0 6.0) S_1) L_0 (* (/ 1.0 6.0) L_1)))))
 (let (($x97785 (not $x97786)))
 (let (($x102386 (not (<= (- 10.0) (+ ?x395 A_3 loss_rate_tol)))))
 (let ((?x13018 (* (/ 1.0 3.0) loss_rate_tol)))
 (let ((?x4194 (* (/ 1.0 3.0) A_1)))
 (let ((?x4060 (* (- (/ 1.0 3.0)) A_4)))
 (let ((?x12822 (+ ?x4060 ?x4194 ?x13018)))
 (let (($x101972 (not (<= (- 5.0) ?x12822))))
 (let (($x99882 (not (<= (- 5.0) (+ (* (- (/ 1.0 4.0)) A_4) (* (/ 1.0 4.0) S_3) (* (/ 1.0 4.0) L_1))))))
 (let ((?x5314 (* 2.0 loss_rate_tol)))
 (let ((?x973 (* (- 1.0) S_0)))
 (let ((?x3018 (* 2.0 A_3)))
 (let ((?x3009 (* (- 2.0) A_4)))
 (let (($x101833 (not (<= (- 5.0) (+ ?x3009 ?x3018 A_1 ?x973 ?x498 ?x5314)))))
 (let (($x98890 (not (<= (- 5.0) (+ (* (- (/ 1.0 6.0)) A_4) (* (/ 1.0 6.0) S_1) (* (/ 1.0 6.0) L_1))))))
 (let (($x97069 (not (<= (- 5.0) (+ (* (- (/ 1.0 4.0)) A_4) (* (/ 1.0 4.0) A_3))))))
 (let (($x96899 (not (<= (- 5.0) (+ (* (- (/ 1.0 5.0)) A_4) (* (/ 1.0 5.0) A_2))))))
 (let ((?x1633 (* (- 2.0) L_1)))
 (let ((?x436 (* (- 1.0) S_2)))
 (let ((?x1632 (* 2.0 A_1)))
 (let (($x103044 (not (<= 0.0 (+ ?x3009 ?x3018 ?x1632 ?x436 ?x973 ?x1633 ?x5314)))))
 (let (($x103646 (not (<= 0.0 (+ (* (- (/ 2.0 5.0)) A_4) (* (/ 2.0 5.0) A_2) S_1 ?x973)))))
 (let (($x102971 (not (<= 0.0 (+ ?x2150 (* (/ 1.0 2.0) A_3) S_1 ?x973)))))
 (let (($x98670 (not (<= 0.0 (+ ?x3009 ?x3018 S_1 ?x973 ?x5314)))))
 (let (($x98493 (not (<= 0.0 (+ ?x4060 (* (/ 4.0 3.0) S_1) ?x973 (* (/ 1.0 3.0) L_1))))))
 (let (($x104721 (not (<= (- 5.0) (+ ?x395 A_3 A_1 ?x436 ?x498 loss_rate_tol)))))
 (let (($x96761 (not (<= (- 5.0) (+ (* (- 1.0) A_3) A_2)))))
 (let (($x99550 (not (<= 0.0 (+ ?x395 A_2 A_1 ?x498 ?x973 loss_rate_tol)))))
 (let ((?x13821 (* (/ 2.0 3.0) loss_rate_tol)))
 (let ((?x4151 (* (/ 2.0 3.0) A_1)))
 (let ((?x4266 (* (- (/ 2.0 3.0)) A_4)))
 (let (($x98678 (not (<= 0.0 (+ ?x4266 ?x4151 S_1 ?x973 ?x13821)))))
 (let (($x110144 (<= (- 5.0) (+ ?x395 (* 2.0 S_2) (* (- 1.0) S_1) L_1 loss_rate_tol))))
 (let (($x110145 (not $x110144)))
 (let (($x104415 (not (<= 0.0 (+ ?x2150 (* (/ 1.0 2.0) A_3) S_2 (* (- 1.0) S_1))))))
 (let (($x104021 (not (<= (- 10.0) (+ ?x3009 ?x3018 S_2 (* (- 1.0) S_1) ?x5314)))))
 (let ((?x5464 (* (/ 2.0 5.0) L_1)))
 (let ((?x447 (* (- 1.0) S_1)))
 (let ((?x7941 (* (/ 7.0 5.0) S_2)))
 (let ((?x2499 (* (- (/ 2.0 5.0)) A_4)))
 (let (($x97445 (not (<= 0.0 (+ ?x2499 ?x7941 ?x447 ?x5464)))))
 (let (($x98290 (not (<= (- 5.0) (+ ?x395 A_3 loss_rate_tol)))))
 (let ((?x27454 (* (/ 4.0 3.0) loss_rate_tol)))
 (let ((?x4161 (* (/ 4.0 3.0) A_1)))
 (let ((?x10398 (* (- (/ 4.0 3.0)) A_4)))
 (let (($x103050 (not (<= 0.0 (+ ?x10398 ?x4161 S_3 ?x973 ?x27454)))))
 (let (($x101514 (not (<= 0.0 (+ (* (- (/ 1.0 5.0)) A_4) (* (- (/ 4.0 5.0)) A_2) L_1 S_3)))))
 (let (($x105010 (not (<= (- 15.0) (+ ?x395 A_2 loss_rate_tol)))))
 (let (($x124334 (or $x96899 $x97069 $x98204 $x98890 $x102386 (not (<= (- 20.0) (+ ?x395 S_1 L_1 loss_rate_tol))) $x105010)))
 (let (($x101532 (<= 0.0 (+ ?x395 A_2 (* (- 1.0) A_1) L_1 S_3 loss_rate_tol))))
 (let (($x101541 (not $x101532)))
 (let (($x129699 (or $x98493 (<= 0.0 (+ ?x395 A_3 (* (- 1.0) A_1) S_3 L_1)) $x101541 $x102971 $x103646)))
 (let (($x104178 (not (<= 0.0 (+ (* (- (/ 3.0 4.0)) A_4) (* (/ 3.0 4.0) A_3) S_2 ?x973)))))
 (let (($x101812 (not (<= 0.0 (+ ?x395 A_3 A_1 ?x447 ?x498 loss_rate_tol)))))
 (let ((?x17445 (* (/ 3.0 2.0) loss_rate_tol)))
 (let ((?x2307 (* (/ 3.0 2.0) A_2)))
 (let ((?x8105 (* (- (/ 3.0 2.0)) A_4)))
 (let (($x101009 (not (<= 0.0 (+ ?x8105 ?x2307 S_2 ?x973 ?x17445)))))
 (let (($x98621 (<= 0.0 (+ (* (- (/ 3.0 5.0)) A_4) (* (/ 8.0 5.0) S_2) ?x973 (* (/ 3.0 5.0) L_1)))))
 (let (($x98622 (not $x98621)))
 (let (($x108523 (<= (- 10.0) (+ (* (- 3.0) A_4) ?x3018 A_2 S_3 ?x973 (* 3.0 loss_rate_tol)))))
 (let (($x108524 (not $x108523)))
 (let (($x101024 (not (<= 0.0 (+ ?x395 A_2 S_1 ?x973 loss_rate_tol)))))
 (let ((?x5073 (* 3.0 loss_rate_tol)))
 (let ((?x2058 (* 3.0 A_3)))
 (let ((?x1792 (* (- 3.0) A_4)))
 (let ((?x17433 (+ ?x1792 ?x2058 S_2 ?x973 ?x5073)))
 (let (($x103820 (not (<= (- 15.0) ?x17433))))
 (let (($x100026 (not (<= 0.0 (+ ?x8105 ?x2307 ?x926 S_3 L_0 ?x17445)))))
 (let (($x97422 (<= 0.0 (+ (* (- (/ 3.0 4.0)) A_4) ?x926 (* (/ 7.0 4.0) S_3) L_0 (* (/ 3.0 4.0) L_1)))))
 (let (($x96996 (not $x97422)))
 (let (($x101039 (not (<= 0.0 (+ ?x395 A_2 S_2 ?x447 loss_rate_tol)))))
 (let (($x107075 (not (<= (- 5.0) (+ ?x3009 A_3 A_2 ?x926 S_3 L_0 ?x5314)))))
 (let (($x100970 (<= 0.0 (+ (* (/ 1.0 2.0) A_3) (* (- 1.0) A_2) (* (/ 1.0 2.0) A_1)))))
 (let (($x100609 (not (<= 0.0 (+ ?x3009 (* 2.0 A_2) S_3 ?x973 ?x5314)))))
 (let (($x100895 (not (<= 0.0 (+ ?x395 A_1 S_2 ?x973 loss_rate_tol)))))
 (let (($x915 (<= (+ A_2 ?x498 (* (- 1.0) S_3)) 0.0)))
 (let (($x100627 (not (<= 0.0 (+ ?x395 (* 2.0 S_3) ?x973 L_1)))))
 (let (($x109768 (not (<= (- 5.0) (+ ?x3009 A_3 A_2 S_3 ?x447 ?x5314)))))
 (let (($x100265 (not (<= 0.0 (+ ?x8105 ?x2307 S_3 ?x447 ?x17445)))))
 (let (($x103039 (not (<= (- 10.0) (+ ?x3009 ?x3018 S_1 ?x973 ?x5314)))))
 (let (($x105019 (<= (- 5.0) (+ ?x395 (* (/ 5.0 2.0) S_1) (* (- (/ 3.0 2.0)) S_0) L_1 loss_rate_tol))))
 (let (($x113471 (or $x98204 $x98493 $x102971 $x103039 $x103646 (not (<= (- 5.0) (+ ?x395 A_2 S_1 ?x973 loss_rate_tol))) (not $x105019))))
 (let ((?x8020 (* (- (/ 3.0 2.0)) L_1)))
 (let ((?x2838 (* (- (/ 1.0 2.0)) S_3)))
 (let ((?x2098 (* (/ 3.0 2.0) A_1)))
 (let ((?x3836 (* (/ 3.0 2.0) A_3)))
 (let (($x100532 (not (<= 0.0 (+ ?x8105 ?x3836 ?x2098 ?x2838 ?x973 ?x8020 ?x17445)))))
 (let (($x226484 (or (not (<= 0.0 (+ (* (- 1.0) A_3) A_2 ?x926 S_1 L_0))) $x97785 $x98204 $x101541 $x103026)))
 (let (($x97797 (<= 0.0 (+ (* (- (/ 3.0 4.0)) A_4) (* (/ 7.0 4.0) S_3) ?x447 (* (/ 3.0 4.0) L_1)))))
 (let (($x93890 (not $x97797)))
 (let (($x99207 (not (<= (- 5.0) (+ (* (- (/ 1.0 6.0)) A_4) (* (/ 1.0 6.0) A_1))))))
 (let (($x225832 (or $x96899 $x97069 $x98204 $x99207 (not (<= (- 5.0) (+ (* (- 1.0) A_1) S_0 L_1))) $x102386 (not (<= (- (/ 20.0 3.0)) ?x12822)) $x105010)))
 (let (($x98792 (not (<= (- 5.0) (+ (* (- (/ 1.0 5.0)) A_4) (* (/ 1.0 5.0) S_2) (* (/ 1.0 5.0) L_1))))))
 (let (($x98787 (<= (+ (* (- 1.0) A_2) A_1) (- 5.0))))
 (let (($x98436 (not (<= (- 5.0) (+ (* (- (/ 1.0 7.0)) A_4) (* (/ 1.0 7.0) S_0) (* (/ 1.0 7.0) L_1))))))
 (let (($x106400 (not (<= (- (/ 15.0 2.0)) (+ ?x8105 (* (/ 5.0 2.0) S_2) ?x973 (* (/ 3.0 2.0) L_1) ?x17445)))))
 (let ((?x407 (* (- 1.0) A_1)))
 (let ((?x98272 (+ ?x407 S_0 L_1)))
 (let (($x99760 (<= (- 5.0) ?x98272)))
 (let (($x222440 (or $x96899 $x97069 $x98204 $x98436 $x99760 (not (<= (- 25.0) (+ ?x395 S_0 L_1 loss_rate_tol))) $x102386 $x105010)))
 (let (($x103275 (not (<= 0.0 (+ ?x2150 (* (/ 1.0 2.0) A_3) ?x926 S_2 L_0)))))
 (let (($x99244 (not (<= 0.0 (+ ?x3009 ?x3018 ?x926 S_2 L_0 ?x5314)))))
 (let (($x94798 (not (<= 0.0 (+ ?x2499 ?x926 ?x7941 L_0 ?x5464)))))
 (let ((?x1555 (* 2.0 S_3)))
 (let ((?x403 (* (- 1.0) A_2)))
 (let (($x101076 (not (<= 0.0 (+ ?x395 ?x403 A_1 L_1 ?x1555 ?x436 loss_rate_tol)))))
 (let (($x103621 (not (<= (- 15.0) (+ ?x1792 (* 4.0 S_3) ?x447 (* 3.0 L_1) ?x5073)))))
 (let ((?x7318 (* (- (/ 1.0 2.0)) L_1)))
 (let ((?x2100 (* (/ 1.0 2.0) A_1)))
 (let ((?x2111 (* (/ 1.0 2.0) A_3)))
 (let (($x101570 (not (<= (- 5.0) (+ ?x2150 ?x2111 ?x2100 ?x2838 ?x7318 ?x18334)))))
 (let (($x226424 (or (not (<= (- 5.0) (+ (* (- (/ 1.0 2.0)) A_3) ?x2100))) $x96899 $x97069 $x98204 $x98436 $x101972 $x102386)))
 (let (($x97157 (not (<= 0.0 (+ ?x395 A_3 ?x926 S_1 L_0 loss_rate_tol)))))
 (let (($x103031 (not (<= (- 5.0) (+ ?x395 A_3 ?x926 S_1 L_0 loss_rate_tol)))))
 (let ((?x28970 (+ ?x395 (* (- 3.0) A_0) (* 4.0 S_1) (* 3.0 L_0) L_1 loss_rate_tol)))
 (let (($x229343 (or $x97785 $x98204 (not (<= (- 5.0) ?x28970)) $x103010 (not (<= (- (/ 5.0 2.0)) ?x22009)) $x103026 $x103031)))
 (let (($x226732 (or $x97069 $x98204 $x98792 (not (<= (- (/ 15.0 2.0)) (+ ?x2150 (* (/ 1.0 2.0) S_2) (* (/ 1.0 2.0) L_1) ?x18334))) $x102386)))
 (let (($x101572 (not (<= 0.0 (+ ?x395 A_2 S_3 ?x436 loss_rate_tol)))))
 (let (($x107615 (not (<= (- 10.0) (+ ?x3009 (* 3.0 S_3) ?x436 (* 2.0 L_1) ?x5314)))))
 (let (($x97412 (not (<= 0.0 (+ ?x2150 (* (/ 3.0 2.0) S_3) ?x436 (* (/ 1.0 2.0) L_1))))))
 (let (($x101181 (<= 0.0 (+ (* (- (/ 1.0 2.0)) A_3) ?x926 (* (/ 3.0 2.0) S_2) L_0 (* (/ 1.0 2.0) L_1)))))
 (let (($x99494 (not (<= (- 10.0) (+ ?x395 A_2 loss_rate_tol)))))
 (let (($x97987 (<= 0.0 (+ ?x395 (* (- 2.0) A_1) (* 3.0 L_1) (* 3.0 S_3)))))
 (let (($x94720 (not $x97987)))
 (let (($x102810 (<= 0.0 (+ ?x4266 ?x4151 S_3 ?x436 (* (- (/ 2.0 3.0)) L_0) (* (/ 2.0 3.0) L_1) ?x13821))))
 (let (($x114598 (or (not (= (+ L_1 (* (- 1.0) L_0)) 0.0)) $x97412 $x98204 (not $x102810))))
 (let ((?x3733 (* (/ 4.0 3.0) L_1)))
 (let ((?x4365 (* (- (/ 4.0 3.0)) A_1)))
 (let ((?x2855 (* (/ 1.0 3.0) A_3)))
 (let (($x104965 (not (<= 0.0 (+ ?x4060 ?x2855 ?x4365 (* (/ 4.0 3.0) S_2) ?x3733)))))
 (let (($x99254 (not (<= (- 5.0) (+ ?x395 A_3 ?x407 S_2 L_1 loss_rate_tol)))))
 (let (($x98824 (not (<= 0.0 (+ (* (- (/ 1.0 6.0)) A_4) (* (- (/ 5.0 6.0)) A_1) L_1 S_2)))))
 (let (($x104925 (or $x98204 $x98824 $x99254 (not (<= (- (/ 5.0 3.0)) (+ ?x4060 (* (- (/ 2.0 3.0)) A_1) L_1 S_2 ?x13018))) $x104965)))
 (let (($x111157 (or $x94720 $x98204 (not (<= 0.0 (+ ?x3009 ?x3018 ?x407 S_3 L_1 ?x5314))))))
 (let (($x99954 (<= 0.0 (+ ?x2150 ?x2051 ?x2100 ?x926 ?x7318 (* (/ 1.0 2.0) S_1) L_0 ?x18334))))
 (let (($x99955 (not $x99954)))
 (let (($x99269 (not (<= 0.0 (+ ?x4060 ?x4194 ?x926 S_1 L_0 ?x13018)))))
 (let ((?x6149 (* 4.0 loss_rate_tol)))
 (let ((?x3886 (* 4.0 L_1)))
 (let ((?x5893 (* 5.0 S_3)))
 (let ((?x6552 (* (- 4.0) A_4)))
 (let (($x98145 (not (<= 0.0 (+ ?x395 A_1 S_3 ?x447 loss_rate_tol)))))
 (let (($x99909 (not (<= 0.0 (+ ?x395 A_1 ?x926 S_3 L_0 loss_rate_tol)))))
 (let (($x100561 (not (<= 0.0 (+ ?x395 A_2 ?x926 S_2 L_0 loss_rate_tol)))))
 (let (($x105201 (<= (- 5.0) (+ ?x395 ?x926 (* 2.0 S_2) L_0 L_1 loss_rate_tol))))
 (let (($x104004 (not (<= (- 10.0) (+ ?x3009 ?x3018 ?x926 S_2 L_0 ?x5314)))))
 (let (($x99920 (not (<= (- (/ 5.0 2.0)) (+ ?x2150 (* (- (/ 1.0 2.0)) A_2) L_1 S_3 ?x18334)))))
 (let (($x103679 (not (<= (- 10.0) (+ ?x3009 ?x407 (* 3.0 S_3) (* 3.0 L_1) ?x5314)))))
 (let (($x94156 (not (<= 0.0 (+ ?x6552 (* 4.0 A_3) S_3 ?x973 ?x6149)))))
 (let (($x101999 (not (<= (- 5.0) (+ ?x407 S_3 L_1)))))
 (let (($x930 (= (+ L_1 (* (- 1.0) L_0)) 0.0)))
 (let (($x98653 (<= 0.0 (+ (* (- (/ 2.0 3.0)) A_1) (* (/ 5.0 3.0) S_1) ?x973 (* (/ 2.0 3.0) L_1)))))
 (let (($x98654 (not $x98653)))
 (let (($x98315 (not (<= (- 5.0) (+ (* (- (/ 1.0 3.0)) A_1) (* (/ 1.0 3.0) S_1) (* (/ 1.0 3.0) L_1))))))
 (let (($x99091 (not (<= 0.0 (+ ?x395 A_3 ?x403 L_1 S_3 loss_rate_tol)))))
 (let ((?x1329 (* (/ 1.0 2.0) S_2)))
 (let ((?x2092 (* (- (/ 1.0 2.0)) A_1)))
 (let (($x132353 (or $x98204 $x98824 (not (<= 0.0 (+ ?x2150 ?x2111 ?x2092 ?x1329 (* (/ 1.0 2.0) L_0) ?x18334))) $x104965)))
 (let (($x102139 (<= 0.0 (+ (* (/ 1.0 4.0) A_4) ?x407 (* (/ 3.0 4.0) S_3) (* (/ 3.0 4.0) L_1)))))
 (let (($x98737 (<= 0.0 (+ (* (- 3.0) A_1) (* 3.0 S_3) (* 3.0 L_1)))))
 (let (($x98440 (<= 0.0 (+ (* (- 3.0) A_1) (* 4.0 S_3) ?x447 (* 3.0 L_1)))))
 (let (($x98441 (not $x98440)))
 (let (($x102639 (not (<= (- 5.0) (+ ?x4266 (* (- (/ 1.0 3.0)) A_1) S_3 L_1 ?x13821)))))
 (let (($x229406 (or $x930 $x98204 (not (<= (- 5.0) (+ (* (- 1.0) A_3) S_3 L_1))) $x102639)))
 (let (($x97254 (not (<= 0.0 (+ (* (- 4.0) A_1) ?x5893 ?x973 ?x3886)))))
 (let ((?x2535 (* (/ 2.0 5.0) A_2)))
 (let (($x101692 (<= 0.0 (+ ?x2499 ?x2535 (* (- (/ 2.0 5.0)) A_1) (* (/ 7.0 5.0) S_1) ?x973 ?x5464))))
 (let (($x98443 (<= 0.0 (+ (* (- 2.0) A_1) (* 3.0 S_3) ?x436 (* 2.0 L_1)))))
 (let (($x98444 (not $x98443)))
 (let (($x102711 (not (<= 0.0 (+ ?x407 (* 2.0 S_2) ?x447 L_1)))))
 (let (($x98286 (<= 0.0 (+ (* (- (/ 3.0 2.0)) A_1) (* (/ 5.0 2.0) S_2) ?x973 (* (/ 3.0 2.0) L_1)))))
 (let (($x98287 (not $x98286)))
 (let (($x101403 (<= 0.0 (+ ?x10398 (* (/ 4.0 3.0) A_2) ?x4365 (* (/ 7.0 3.0) S_3) ?x973 ?x3733))))
 (let (($x100076 (not (<= 0.0 (+ ?x395 A_3 A_1 ?x498 ?x447)))))
 (let (($x97165 (<= 0.0 (+ (* (- (/ 1.0 3.0)) A_1) ?x926 (* (/ 4.0 3.0) S_1) L_0 (* (/ 1.0 3.0) L_1)))))
 (let (($x97162 (not $x97165)))
 (let ((?x4645 (* (/ 1.0 5.0) L_1)))
 (let ((?x5148 (* (- (/ 1.0 5.0)) A_1)))
 (let ((?x2471 (* (/ 1.0 5.0) A_2)))
 (let ((?x2479 (* (- (/ 1.0 5.0)) A_4)))
 (let (($x96557 (not (<= 0.0 (+ ?x2479 ?x2471 ?x5148 ?x926 (* (/ 6.0 5.0) S_1) L_0 ?x4645)))))
 (let (($x115750 (or $x930 (not (<= 0.0 (+ ?x395 A_2 ?x407 ?x1555 ?x447 L_1))) $x98204 $x100076 $x100265)))
 (let (($x101356 (not (<= 0.0 (+ ?x4266 ?x4151 S_2 ?x447 ?x13821)))))
 (let (($x101258 (not (<= 0.0 (+ ?x407 ?x926 (* 2.0 S_2) L_0 L_1)))))
 (let (($x99853 (not (<= 0.0 (+ ?x4266 ?x4151 ?x926 S_2 L_0 ?x13821)))))
 (let ((?x7222 (* (/ 3.0 4.0) L_1)))
 (let ((?x2663 (* (- (/ 3.0 4.0)) A_4)))
 (let ((?x7863 (+ ?x2663 (* (/ 3.0 4.0) A_2) (* (- (/ 3.0 4.0)) A_1) (* (/ 7.0 4.0) S_2) ?x973 ?x7222)))
 (let (($x95312 (not (<= (- 10.0) (+ ?x395 A_2)))))
 (let (($x133106 (or $x930 $x95312 $x98204 (not (<= (- 5.0) (+ ?x2479 ?x2471 ?x5148 (* (/ 1.0 5.0) S_1) ?x4645))))))
 (let ((?x7432 (* (/ 1.0 4.0) L_1)))
 (let ((?x7437 (* (- (/ 1.0 4.0)) A_1)))
 (let ((?x2615 (* (/ 1.0 4.0) A_3)))
 (let ((?x2665 (* (- (/ 1.0 4.0)) A_4)))
 (let (($x90400 (not (<= (- 5.0) (+ ?x395 A_3)))))
 (let (($x223982 (or $x930 $x90400 $x98204 (not (<= (- 5.0) (+ ?x2665 ?x2615 ?x7437 (* (/ 1.0 4.0) S_1) ?x7432))))))
 (let (($x99242 (not (<= (- 5.0) (+ ?x2092 ?x1329 (* (/ 1.0 2.0) L_1))))))
 (let ((?x3449 (* (/ 1.0 3.0) L_1)))
 (let ((?x1845 (* (/ 1.0 3.0) S_3)))
 (let ((?x4007 (* (- (/ 1.0 3.0)) A_1)))
 (let (($x116015 (or $x930 $x95312 $x98204 (not (<= (- 5.0) (+ ?x4060 (* (/ 1.0 3.0) A_2) ?x4007 ?x1845 ?x3449))))))
 (let (($x98773 (not (<= 0.0 (+ ?x1792 ?x2058 ?x926 S_3 L_0 ?x5073)))))
 (let ((?x5589 (* (/ 3.0 2.0) L_1)))
 (let ((?x8064 (* (/ 5.0 2.0) S_3)))
 (let ((?x2192 (* (- (/ 3.0 2.0)) A_1)))
 (let (($x221123 (or $x930 (not (<= 0.0 (+ ?x8105 ?x3836 ?x2192 ?x926 ?x8064 L_0 ?x5589))) $x98204 $x98773)))
 (let (($x127172 (or $x930 (not (<= 0.0 (+ ?x395 A_2 ?x407 ?x926 ?x1555 L_0 L_1))) $x98204 $x99554 $x100026)))
 (let (($x104593 (<= 0.0 (+ ?x2150 ?x2051 ?x2100 ?x7318 (* (- (/ 1.0 2.0)) S_1) ?x18334))))
 (let (($x100433 (<= (- 15.0) (+ ?x1792 ?x926 (* 4.0 S_3) L_0 (* 3.0 L_1) ?x5073))))
 (let (($x125575 (or $x98204 $x98824 $x99254 (not (<= 0.0 (+ ?x2150 ?x2051 ?x407 L_1 S_2 ?x18334))) $x104965)))
 (let (($x98395 (not (<= (- 5.0) (+ ?x2665 (* (/ 1.0 4.0) A_2) ?x7437 (* (/ 1.0 4.0) S_2) ?x7432)))))
 (let (($x98798 (<= 0.0 (+ ?x2150 ?x2051 ?x2092 (* (/ 3.0 2.0) S_2) ?x447 (* (/ 1.0 2.0) L_1)))))
 (let (($x90249 (<= 0.0 (+ ?x2150 ?x2051 ?x2092 ?x926 (* (/ 3.0 2.0) S_2) L_0 (* (/ 1.0 2.0) L_1)))))
 (let (($x98976 (not (<= 0.0 (+ ?x1792 ?x2058 S_3 ?x447 ?x5073)))))
 (let (($x129173 (or $x930 $x98204 $x98976 (not (<= 0.0 (+ ?x8105 ?x3836 ?x2192 ?x8064 ?x447 ?x5589))))))
 (let (($x98446 (<= 0.0 (+ (* (- 3.0) A_1) ?x926 (* 4.0 S_3) L_0 (* 3.0 L_1)))))
 (let (($x98447 (not $x98446)))
 (let (($x99902 (not (<= 0.0 ?x17433))))
 (let (($x125739 (or $x930 $x98204 $x99902 (not (<= 0.0 (+ ?x395 A_3 ?x407 (* 2.0 S_2) ?x973 L_1))))))
 (let ((?x1706 (* 2.0 L_1)))
 (let ((?x3973 (* 3.0 S_3)))
 (let ((?x1705 (* (- 2.0) A_1)))
 (let (($x133151 (or $x930 $x94156 $x98204 (not (<= 0.0 (+ ?x3009 ?x3018 ?x1705 ?x3973 ?x973 ?x1706))))))
 (let ((?x1841 (* (/ 1.0 3.0) S_0)))
 (let ((?x425 (* (- 1.0) S_3)))
 (let ((?x5525 (* (- (/ 2.0 3.0)) L_1)))
 (let ((?x5289 (* (/ 2.0 3.0) A_3)))
 (let ((?x7254 (* (/ 1.0 6.0) L_1)))
 (let ((?x4095 (* (- (/ 1.0 6.0)) A_4)))
 (let (($x98345 (<= (- 5.0) (+ ?x4095 (* (/ 1.0 6.0) A_2) (* (- (/ 1.0 6.0)) A_1) (* (/ 1.0 6.0) S_0) ?x7254))))
 (let (($x131139 (or $x98204 $x98493 $x98678 (not (<= 0.0 (+ (* (- 1.0) A_3) A_1 S_2 ?x447))) $x100076)))
 (let (($x98419 (not (<= (- 5.0) (+ ?x2150 ?x2111 ?x2092 (* (/ 1.0 2.0) S_3) (* (/ 1.0 2.0) L_1))))))
 (let (($x98617 (<= 0.0 (+ (* (- 1.0) A_3) ?x1555 ?x447 L_1))))
 (let ((?x5348 (* (/ 2.0 3.0) L_1)))
 (let ((?x3901 (* (- (/ 2.0 3.0)) A_1)))
 (let (($x96668 (<= 0.0 (+ ?x4266 (* (/ 2.0 3.0) A_2) ?x3901 (* (/ 5.0 3.0) S_3) ?x436 ?x5348))))
 (let (($x134439 (or $x930 $x90400 $x98204 (not (<= (- 5.0) (+ ?x4060 ?x2855 ?x4007 (* (/ 1.0 3.0) S_2) ?x3449))))))
 (let (($x99265 (not (<= 0.0 (+ ?x3009 ?x3018 S_2 ?x447 ?x5314)))))
 (let (($x136662 (or $x930 $x98204 (not (<= 0.0 (+ ?x4266 ?x5289 ?x3901 (* (/ 5.0 3.0) S_2) ?x447 ?x5348))) $x99265)))
 (let (($x101871 (<= 0.0 (+ ?x2150 ?x2111 ?x2092 (* (/ 3.0 2.0) S_1) ?x973 (* (/ 1.0 2.0) L_1)))))
 (let (($x120086 (or $x930 (<= (+ ?x3009 ?x3018 S_3 ?x436) 0.0) $x98204 (not (<= 0.0 (+ ?x395 A_3 ?x407 ?x1555 ?x436 L_1))))))
 (let (($x2913 (<= (+ ?x403 L_1 S_3 ?x436 S_0) 0.0)))
 (let (($x921 (<= (+ A_1 ?x498 ?x436) 0.0)))
 (let (($x94081 (not (<= 0.0 (+ ?x4266 ?x5289 ?x3901 ?x926 (* (/ 5.0 3.0) S_2) L_0 ?x5348)))))
 (let (($x131299 (or $x930 (<= 0.0 (+ (* (- 1.0) A_3) A_2 ?x407 S_2 L_1)) $x98204 $x99242 $x101039)))
 (let (($x99582 (not (<= (- 10.0) (+ ?x395 A_3 ?x407 S_2 L_1 loss_rate_tol)))))
 (let (($x121293 (or $x930 $x98204 $x99242 $x99582 (not (<= (- 5.0) (+ ?x2150 ?x2051 ?x407 S_2 L_1 ?x18334))))))
 (let (($x135750 (or $x930 $x98204 $x99242 (not (<= (- 5.0) (+ ?x395 A_2 ?x407 S_3 L_1 loss_rate_tol))))))
 (let (($x132396 (or $x930 $x98204 $x99242 $x99582 (not (<= (- 5.0) (+ ?x4060 ?x3901 S_2 L_1 ?x13018))))))
 (let (($x97364 (not (<= 0.0 (+ ?x2665 ?x2615 ?x7437 ?x926 (* (/ 5.0 4.0) S_1) L_0 ?x7432)))))
 (let (($x229270 (or $x930 (<= (+ (* (- 1.0) A_3) A_2 ?x407 S_3 ?x436 S_0 L_1) 0.0))))
 (let (($x221879 (or $x930 $x97254 $x98204 (not (<= (- 5.0) (+ ?x3009 ?x3018 ?x407 S_3 L_1 ?x5314))))))
 (let (($x98892 (or (<= (+ A_1 ?x498 ?x425) (- 5.0)) $x915 (<= (+ ?x2838 (* (/ 1.0 2.0) S_0)) (- 5.0)))))
 (let (($x130544 (or $x930 (<= (+ (* (- 1.0) A_3) A_2 ?x1705 S_3 S_0 ?x1706) (- 5.0)))))
 (let (($x139397 (or $x930 $x90400 $x98204 (not (<= (- 25.0) (+ ?x395 A_3 ?x407 S_0 L_1))))))
 (let (($x96 (>= S_1 S_0)))
 (let (($x99 (>= S_2 S_1)))
 (let (($x102 (>= S_3 S_2)))
 (let (($x107 (>= A_1 A_0)))
 (let (($x108 (>= A_2 A_1)))
 (let (($x109 (>= A_3 A_2)))
 (let (($x110 (>= A_4 A_3)))
 (and $x110 $x109 $x108 $x107 $x102 $x99 $x96 (or (not (<= 0.0 (+ L_0 ?x498))) $x930) (or (<= (+ ?x407 S_1 L_1) (- 5.0)) $x930) (or (<= (+ ?x407 ?x1329 (* (/ 1.0 2.0) S_0) L_1) (- 5.0)) $x930) (or $x921 (<= (+ ?x1845 ?x436 (* (/ 2.0 3.0) S_0)) 0.0)) (or $x921 (<= (+ ?x436 S_0) (- 5.0))) (or (<= (+ ?x425 S_1) (- 5.0)) $x915) (or $x930 $x97157 $x97162 $x98204) (or $x930 (<= (+ ?x407 ?x1845 (* (/ 2.0 3.0) S_0) L_1) (- 5.0))) (or $x930 $x94156 $x97254 $x98204) (or $x930 (<= ?x98272 (- 10.0))) $x139397 $x130544 (or $x930 (<= (+ ?x403 ?x407 ?x1706 S_3 S_0) (- 5.0))) (or $x915 (<= (+ (* (- 2.0) S_3) (* 3.0 S_1) ?x973) 0.0)) (or $x915 (<= (+ ?x926 ?x425 (* 2.0 S_1) L_0) 0.0)) $x98892 $x221879 (or $x96996 $x98204 $x98773) $x229270 (or $x930 $x98204 (not (<= (- 20.0) ?x98272)) $x98290) (or $x930 $x98204 $x98290 $x98315) (or $x930 $x2913) (or $x930 $x97157 $x97364 $x98204) (or $x930 $x98204 $x98654 $x98670) (or $x930 $x98204 $x99242 $x99244) (or $x930 $x98204 $x99242 $x99265) (or $x930 $x98204 $x99242 $x99254) (or $x930 $x98204 $x99242 $x99554 $x99853) (or $x930 $x98204 $x98976 $x99242) $x132396 (or $x930 $x98204 $x98773 $x99242) (or $x930 $x98204 $x99242 $x99554 $x100026) $x135750 $x121293 (or $x930 $x98204 $x99242 $x99554 $x100561) $x131299 (or $x930 $x97254 $x98145 $x98204) (or $x930 $x98204 (not (<= 0.0 (+ ?x3009 ?x3018 S_3 ?x436 ?x5314))) $x98444) (or $x97412 $x98204 (not (<= 0.0 (+ ?x3009 ?x3018 S_3 ?x436 ?x5314)))) (or $x930 $x97254 $x98204 $x99265) (or $x930 $x94081 $x98204 $x99244) (or $x921 $x2913) $x120086 (or $x930 $x98204 $x98447 $x98773) (or $x930 $x98204 $x98287 $x99902) (or $x930 $x98204 $x98654 $x101009 $x101833) (or $x93890 $x98204 $x98976) (or $x930 $x98204 $x98670 (not $x101871)) (or $x930 $x98204 $x99244 $x101258) (or $x94798 $x98204 $x98617 $x98737 $x99853) (or $x930 $x98204 $x98441 $x98976) (or $x93890 $x98145 $x98204) (or $x930 $x98204 $x99265 $x102711) (or $x930 $x98204 $x99242 $x99494) (or $x930 $x98204 $x98654 $x101572) $x136662 $x134439 (or $x930 $x98204 $x98290 $x99242) (or $x930 $x98204 $x101356 $x101812 $x102711) (or $x930 $x98204 $x98287 $x100895 $x103044) (or $x930 $x98204 $x98290 $x101999) (or $x930 $x98204 $x99091 $x102711) (or $x930 $x98204 $x101999 (not (<= 0.0 (+ ?x4266 ?x4151 S_3 ?x436 ?x13821)))) (or $x98204 $x98290 $x99882) (or $x930 $x98204 $x98444 $x100265 $x101812) (or $x930 $x98204 $x98444 $x101572) (or $x930 (not $x96668) $x98204 $x98443) (or $x98204 $x98493 $x98617 $x98678 $x98737) (or $x930 $x98204 $x101812 $x101972 $x101999) (or $x915 $x98204 $x98617 $x98622 $x100895) (or $x930 $x98204 $x99909 $x101999) (or $x930 $x98204 $x99920 $x101999) (or $x98204 $x98622 $x100895 $x103044 $x104178) (or $x915 $x930 $x98204 $x100532 $x101009 $x102711) (or $x915 $x930 $x98204 $x98287 $x100532 $x101009) (or $x930 $x98204 $x98287 $x99554 $x101009) (or $x930 $x98204 $x99242 $x101812 $x101972) (or $x97069 $x98204 $x98792 $x101972 $x102386) (or $x930 $x98204 (not (<= (- 20.0) ?x98272)) $x99494) (or $x930 $x98204 (not (<= (- 20.0) ?x98272)) $x101812 $x101972) (or $x930 $x90400 $x98204 $x98419) (or $x930 $x98204 $x99554 $x100561 $x101258) (or $x98204 $x99091 $x101514) (or $x930 $x98204 $x98315 $x99554 $x101972) (or $x96996 $x98204 $x99909) (or $x930 $x98204 $x98315 $x101570 $x101972) (or $x915 $x930 $x98204 $x99242 $x100532 $x101972) (or $x98204 $x98493 $x98678 $x98737 $x102971 $x104721) $x131139 (or $x915 $x930 $x98204 $x98654 $x100532 $x101024) (or $x98204 $x97412 $x101572) (or $x915 $x930 $x98204 $x98287 $x100532 $x103050) (or $x930 $x98204 $x99550 $x101833 $x101999 $x103050) (or $x930 $x98204 $x99242 $x100609 $x101812) (or $x930 $x98204 $x99550 $x101812 $x101999 $x103050) (or $x930 $x98204 $x99242 $x99554 $x100609) (or $x930 $x98204 $x99550 $x99554 $x101999 $x103050) (or $x915 $x930 $x98204 $x98444 $x100532 $x103050) (or $x915 $x98204 $x100627 $x101833 $x103050) (or $x930 $x97162 $x98204 $x99269 $x99554 $x99955) (or $x930 $x98204 $x98654 $x101024 $x103044) (or $x915 $x930 $x98204 $x99242 $x100532 $x100609) (or $x915 $x930 $x98204 $x98654 $x100532 $x100609) (or $x930 $x98204 $x98287 $x100609 $x103044) (or $x93890 $x98204 $x101572) (or $x96996 $x98204 $x101572) (or $x915 $x930 $x98204 $x98654 $x98678 $x100532) (or $x930 $x98204 $x98447 $x99909) (or $x930 $x95312 $x98204 (not $x98345)) (or $x930 (<= (+ ?x5289 ?x5525 ?x425 ?x1841) 0.0) $x98204 $x98436 $x101972) (or $x930 $x98204 $x98436 $x101570 $x101972) (or $x915 $x97069 $x98204 $x98436 $x98787 $x101972 $x102386) (or $x915 $x930 $x97254 $x98204 $x101812 $x103050) (or $x915 $x930 $x97254 $x98204 $x103044 $x103050) (or $x915 $x930 $x98204 $x98447 $x99554 $x103050) $x133151 (or $x930 $x98204 $x99550 $x101999 $x103044 $x103050) $x125739 (or $x930 $x98204 $x98447 $x100026 $x101812) $x129173 (or $x930 (not $x90249) $x98204 $x100561 $x101833) (or $x930 $x98204 (not $x98798) $x101039 $x101833) (or $x930 $x95312 $x98204 $x98395) (or $x97069 $x98204 $x98290 $x98792) (or $x930 $x98204 $x98315 $x99494) (or $x96899 $x97069 $x98204 $x98290 $x98436 $x99207) $x125575 (or $x930 $x98204 $x99554 $x99853 $x102711) (or $x915 $x930 $x98204 $x100532 $x100895 $x102711) (or $x96996 $x98204 (not $x100433)) (or $x930 $x98204 $x99242 $x101009 $x101833) (or $x915 $x930 $x98204 $x98287 $x100532 $x100895) (or $x94798 $x98204 $x99554 $x99853 $x103275) (or $x930 $x98204 $x101972 $x102386 $x104593) (or $x930 $x98204 $x98315 $x101833 $x101972) (or $x930 $x98204 $x101972 $x103044 $x104593) $x127172 (or $x930 $x98145 $x98204 $x98441) $x221123 $x116015 (or $x930 $x98204 $x98654 $x100609 $x101833) (or $x930 $x98204 $x99242 $x100895 $x101833) $x223982 (or $x930 $x98204 $x98444 (not (<= 0.0 (+ ?x4266 ?x4151 S_3 ?x436 ?x13821)))) $x133106 (or $x97069 $x98204 $x98792 $x101812 $x101972) (or $x97445 $x98204 $x101356 $x101833 $x104178) (or $x930 $x98204 $x98287 $x101039 $x101812) (or $x930 $x98204 (not (<= 0.0 ?x7863)) $x101009 $x101833) (or $x930 $x98204 $x101039 $x101812 $x102711) (or $x930 $x98204 $x99554 $x99853 $x101258) (or $x930 $x98204 $x99554 $x100895 $x101258) (or $x97445 $x98204 $x101356 $x101812 $x104415) $x115750 (or $x930 $x96557 $x97165 $x98204) (or $x930 $x97162 $x98204 $x99554 $x100007) (or $x98204 $x99882 $x101812 $x101972) (or $x930 $x98204 $x100076 $x100609 (not $x101403)) (or $x930 $x98204 $x98287 $x100895 $x101812) (or $x930 $x98204 $x102639 $x102711) (or $x930 $x98204 $x98444 $x100609 $x101812) (or $x98204 $x100627 $x101572) (or $x98204 $x100609 $x100627 $x103044) (or $x930 $x98204 $x98654 $x99554 $x101024) (or $x930 $x98204 $x101024 (not $x101692) $x101833) (or $x930 $x97254 $x98204 $x100609 $x101812) (or $x915 $x97785 $x98204 $x99269 $x99554 $x103026) (or $x930 $x98204 $x98890 $x101972 $x102386) (or $x96761 $x97069 $x98204 $x98890 $x101812 $x101972) (or $x915 $x98204 $x98622 $x100532 $x100895 $x104178) (or $x930 $x98204 $x99494 $x101999) (or $x930 $x98204 $x98654 $x101024 $x101833) (or $x930 $x98204 $x101076 $x101999) (or $x930 $x98204 $x100609 $x101833 $x101999) $x229406 (or $x930 $x98204 $x99554 $x100026 $x101999) (or $x930 $x98204 $x98441 $x98737 $x100265) (or $x915 $x98204 $x100627 $x103044 $x103050) (or $x97412 $x98204 $x102139) (or $x915 $x97069 $x98204 $x98290 $x98890) $x132353 (or $x98204 $x99494 $x99882) (or $x94798 $x98204 $x99554 $x100561 $x103275) (or $x930 $x98204 $x98654 $x98678 $x99550 $x101833) (or $x930 $x98204 $x99091 $x101999) (or $x930 $x98204 $x98315 $x101972 $x104721) (or $x930 $x98204 $x98654 $x98678 $x99550 $x103044) (or $x930 $x98204 $x98654 $x98678 $x99550 $x99554) (or $x930 $x98204 $x101009 $x101812 $x101999) (or $x930 $x98204 $x99554 $x100609 $x101999) (or $x98204 $x100026 $x100627 $x107075) (or $x94156 $x98204 $x100627) (or $x94720 $x98204 $x103679) (or $x98204 $x99920 $x101514) (or $x94798 $x98204 $x100561 $x103275 $x104004) (or $x94798 $x98204 $x103275 $x104004 (not $x105201)) (or $x98204 $x98824 $x101541 $x104965) (or $x93890 $x98204 $x100265 $x109768) (or $x98204 $x100609 $x100627 $x108524) (or $x94798 $x98204 $x100561 $x103275 $x107075) (or $x915 $x97069 $x98204 $x98436 $x99207 $x99494) (or $x98204 $x99909 $x101514) (or $x98145 $x98204 $x101514) (or $x98204 $x100627 (not (<= (- 20.0) (+ ?x6552 ?x5893 ?x973 ?x3886 ?x6149)))) (or $x97785 $x98204 $x99269 $x99554 $x99955 $x103010 $x103026) (or $x98204 $x98622 $x100895 $x101833 $x104178) (or $x915 $x97785 $x98204 $x101541 $x103026) (or $x97445 $x98204 $x101541 $x104415) (or $x94798 $x98204 $x101541 $x103275) (or $x97445 $x98204 $x99265 $x104415) (or $x98204 $x98622 $x100265 $x104178 $x109768) (or $x97445 $x98204 $x100265 $x104415 $x109768) $x111157 (or $x98204 $x98622 $x101541 $x104178) $x104925 $x114598 (or $x97069 $x98204 $x98792 $x99494) (or $x98204 $x99882 $x101833 $x101972) (or $x94720 $x98204 $x101541) (or $x96996 $x98204 $x100026 $x107075) (or $x96996 $x98204 $x101541) (or $x93890 $x98204 $x101541) (or $x96761 $x97069 $x98204 $x98890 $x99494) (or $x98204 $x100627 $x101541) (or $x915 $x98204 $x98493 $x101541 $x102971) (or $x98204 $x99882 (not (<= (- 10.0) (+ ?x395 S_3 L_1 loss_rate_tol)))) (or $x98204 $x98493 $x101024 $x101833 $x102971 $x103646) (or $x915 $x98204 $x98493 $x101024 $x102971 $x107075) (or $x96761 $x97069 $x98204 $x98436 $x98787 $x101570 $x101972) (or $x96761 $x97069 $x98204 $x98436 $x98787 $x101812 $x101972) (or $x915 $x98204 $x98493 $x98678 $x100532 $x102971) (or $x915 $x98204 $x98493 $x100532 $x101024 $x102971) (or $x915 $x97785 $x98204 $x100026 $x103026 $x107075) (or $x97445 $x98204 $x101039 $x104021 $x104415) (or $x915 $x97785 $x98204 $x101572 $x103026) (or $x915 $x98204 $x98493 $x101024 $x102971 $x108524) (or $x94798 $x98204 $x101181) (or $x97412 $x98204 $x107615) (or $x97785 (<= 0.0 (+ ?x395 A_2 S_3 ?x973)) $x101572 $x103010 $x103026) (or $x98204 $x98493 $x101572 $x102971 $x103646) $x226732 (or $x96761 $x97069 $x98204 $x98436 $x98787 $x101972 $x104721) (or $x98204 $x99554 $x99882 $x101972) (or $x97785 $x98204 $x100007 $x100970 $x103026 $x103031) $x229343 (or $x97157 $x97785 $x98204 $x103010 $x103026) (or $x97069 $x98204 $x98792 $x99554 $x101972) (or $x98204 $x99882 $x101972 $x104721) (or $x96761 $x97069 $x98204 $x98890 $x101570 $x101972) (or $x915 $x97069 $x98204 $x98890 $x100532 $x101972) (or $x96761 $x97069 $x98204 $x98890 $x99554 $x101972) $x226424 (or $x97069 $x98204 $x98890 $x100970 $x101972 $x104721) (or $x97069 $x98204 $x98792 $x101570 $x101972) (or $x93890 $x98204 $x103621) (or $x98204 $x101076 $x101514) (or $x94798 $x98204 $x99244 $x103275) (or $x98204 $x98622 $x99902 $x104178) $x222440 (or $x915 $x98204 $x99882 $x100532 $x101972) (or $x98204 $x98622 $x101009 $x101833 $x104178) (or $x98204 $x98622 $x103820 $x104178 $x106400) (or $x96761 $x97069 $x98204 $x98436 $x98787 $x99554 $x101972) (or $x915 $x98204 $x100532 $x100627 $x103050) (or $x97069 $x98204 $x98792 $x101833 $x101972) (or $x915 $x97069 $x98204 $x98792 $x100532 $x101972) $x225832 (or $x98204 $x98622 $x99554 $x101009 $x104178) (or $x93890 $x98204 $x100265 $x101812) $x226484 (or $x915 $x98204 $x100532 $x100609 $x100627) (or $x915 $x98204 $x98622 $x100532 $x101009 $x104178) (or $x98204 $x99550 $x100627 $x101833 $x103050) (or $x98204 $x98622 $x100026 $x104178 $x107075) $x113471 (or $x98204 $x98493 $x101024 $x102971 $x103039 $x103646) (or $x97785 $x98204 $x100026 $x103010 $x103026 $x107075) (or $x96899 $x97069 $x98204 $x98890 $x101972 $x102386) (or $x98204 $x99882 $x101972 $x103044) (or $x98204 $x99550 $x101514 $x101833 $x103050) (or $x98204 $x99550 $x99554 $x101514 $x103050) (or $x98204 $x99550 $x101514 $x101812 $x103050) (or $x98204 $x98493 $x98678 $x99550 $x99554 $x102971 $x103646) (or $x98204 $x98493 $x99554 $x101024 $x102971 $x103646) (or $x98204 $x99550 $x100627 $x103044 $x103050) (or $x98204 $x98493 $x101024 $x102971 $x103044 $x103646) (or $x98204 $x100609 $x100627 $x101833) (or $x98204 $x99554 $x100609 $x100627) (or $x98204 $x100609 $x100627 $x101812) (or $x98204 $x100265 $x100627 $x109768) (or $x98204 $x99550 $x100627 $x101812 $x103050) (or $x98204 $x99550 $x99554 $x100627 $x103050) (or $x915 $x98204 $x98493 $x98670 $x102971) (or $x98204 $x98622 $x99554 $x100895 $x104178) (or $x98204 $x98622 $x100895 $x101812 $x104178) (or $x98204 $x98622 $x100609 $x104178 $x108524) (or $x98204 $x98493 $x100970 $x101024 $x102971 $x107075) (or $x97445 $x98204 $x101039 $x101812 $x104415) (or $x97445 $x98204 $x101812 $x104415 $x110145) (or $x96996 $x98204 $x99554 $x100026) (or $x98204 $x98622 $x101009 $x103820 $x104178) (or $x98204 $x98493 $x101024 $x102971 $x103646 $x108524) (or $x98204 $x98622 $x101009 $x101812 $x104178) $x129699 $x124334 (or $x98204 $x99550 $x101514 $x103044 $x103050) (or $x96899 $x97069 $x98204 $x98290 $x98890) (or $x97445 $x98204 $x104021 $x104415 $x110145) (or $x98204 $x98493 $x98678 $x99550 $x101833 $x102971 $x103646) (or $x98204 $x98493 $x98678 $x99550 $x102971 $x103044 $x103646) (or $x96761 $x97069 $x98204 $x98890 $x101972 $x104721) (or $x98204 $x98493 $x98670 $x102971 $x103646) (or $x96899 $x97069 $x98204 $x98890 $x101972 $x103044) (or $x96899 $x97069 $x98204 $x98890 $x101833 $x101972) (or $x98204 $x99882 $x101972 $x102386) (or $x97785 $x98204 $x99554 $x100007 $x103010 $x103026) $x34 (<= (+ ?x926 S_0 L_0) 0.0) (<= (+ (* (- 1.0) A_3) L_1 S_3) 0.0) (<= (+ ?x403 L_1 S_2) 0.0) (<= (+ ?x407 L_1 S_1) 0.0)))))))))))))))))))))))))))))))))))))))))))))))))))))))))))))))))))))))))))))))))))))))))))))))))))))))))))))))))))))))))))))))))))))))))))))))))))))))))))))))))))))))))))))))))))))))))))))))))))))))))))))))))))))))))))))))))))))))))))))))))))))))))))))))))))))))))))))))))))))))))
(check-sat)
