qe/outputs/qe/qe_queries_cbrdelay/T=5,eliminate=[I_0,I_1,I_2,I_3,I_4,L_2,L_3,L_4,C,B,S_4].smt2.z3
[And(A_4 >= A_3,
     A_3 >= A_2,
     A_2 >= A_1,
     A_1 >= A_0,
     S_3 >= S_2,
     S_2 >= S_1,
     S_1 >= S_0,
     Or(Not(0 <= L_0 + -1*L_1), L_1 + -1*L_0 == 0),
     Or(-1*A_1 + S_1 + L_1 <= -5, L_1 + -1*L_0 == 0),
     Or(-1*A_1 + (1/2)*S_2 + (1/2)*S_0 + L_1 <= -5,
        L_1 + -1*L_0 == 0),
     Or(A_1 + -1*L_1 + -1*S_2 <= 0,
        (1/3)*S_3 + -1*S_2 + (2/3)*S_0 <= 0),
     Or(A_1 + -1*L_1 + -1*S_2 <= 0, -1*S_2 + S_0 <= -5),
     Or(-1*S_3 + S_1 <= -5, A_2 + -1*L_1 + -1*S_3 <= 0),
     Or(L_1 + -1*L_0 == 0,
        Not(0 <=
            -1*A_4 +
            A_3 +
            -1*A_0 +
            S_1 +
            L_0 +
            loss_rate_tol),
        Not(0 <=
            -(1/3)*A_1 +
            -1*A_0 +
            (4/3)*S_1 +
            L_0 +
            (1/3)*L_1),
        Not(0 <= loss_rate_tol)),
     Or(L_1 + -1*L_0 == 0,
        -1*A_1 + (1/3)*S_3 + (2/3)*S_0 + L_1 <= -5),
     Or(L_1 + -1*L_0 == 0,
        Not(0 <=
            -4*A_4 + 4*A_3 + S_3 + -1*S_0 + 4*loss_rate_tol),
        Not(0 <= -4*A_1 + 5*S_3 + -1*S_0 + 4*L_1),
        Not(0 <= loss_rate_tol)),
     Or(L_1 + -1*L_0 == 0, -1*A_1 + S_0 + L_1 <= -10),
     Or(L_1 + -1*L_0 == 0,
        Not(-5 <= -1*A_4 + A_3),
        Not(0 <= loss_rate_tol),
        Not(-25 <= -1*A_4 + A_3 + -1*A_1 + S_0 + L_1)),
     Or(L_1 + -1*L_0 == 0,
        -1*A_3 + A_2 + -2*A_1 + S_3 + S_0 + 2*L_1 <= -5),
     Or(L_1 + -1*L_0 == 0,
        -1*A_2 + -1*A_1 + 2*L_1 + S_3 + S_0 <= -5),
     Or(A_2 + -1*L_1 + -1*S_3 <= 0,
        -2*S_3 + 3*S_1 + -1*S_0 <= 0),
     Or(A_2 + -1*L_1 + -1*S_3 <= 0,
        -1*A_0 + -1*S_3 + 2*S_1 + L_0 <= 0),
     Or(A_1 + -1*L_1 + -1*S_3 <= -5,
        A_2 + -1*L_1 + -1*S_3 <= 0,
        -(1/2)*S_3 + (1/2)*S_0 <= -5),
     Or(L_1 + -1*L_0 == 0,
        Not(0 <= -4*A_1 + 5*S_3 + -1*S_0 + 4*L_1),
        Not(0 <= loss_rate_tol),
        Not(-5 <=
            -2*A_4 +
            2*A_3 +
            -1*A_1 +
            S_3 +
            L_1 +
            2*loss_rate_tol)),
     Or(Not(0 <=
            -(3/4)*A_4 +
            -1*A_0 +
            (7/4)*S_3 +
            L_0 +
            (3/4)*L_1),
        Not(0 <= loss_rate_tol),
        Not(0 <=
            -3*A_4 +
            3*A_3 +
            -1*A_0 +
            S_3 +
            L_0 +
            3*loss_rate_tol)),
     Or(L_1 + -1*L_0 == 0,
        -1*A_3 + A_2 + -1*A_1 + S_3 + -1*S_2 + S_0 + L_1 <=
        0),
     Or(L_1 + -1*L_0 == 0,
        Not(0 <= loss_rate_tol),
        Not(-20 <= -1*A_1 + S_0 + L_1),
        Not(-5 <= -1*A_4 + A_3 + loss_rate_tol)),
     Or(L_1 + -1*L_0 == 0,
        Not(0 <= loss_rate_tol),
        Not(-5 <= -1*A_4 + A_3 + loss_rate_tol),
        Not(-5 <= -(1/3)*A_1 + (1/3)*S_1 + (1/3)*L_1)),
     Or(L_1 + -1*L_0 == 0,
        -1*A_2 + L_1 + S_3 + -1*S_2 + S_0 <= 0),
     Or(L_1 + -1*L_0 == 0,
        Not(0 <=
            -1*A_4 +
            A_3 +
            -1*A_0 +
            S_1 +
            L_0 +
            loss_rate_tol),
        Not(0 <=
            -(1/4)*A_4 +
            (1/4)*A_3 +
            -(1/4)*A_1 +
            -1*A_0 +
            (5/4)*S_1 +
            L_0 +
            (1/4)*L_1),
        Not(0 <= loss_rate_tol)),
     Or(L_1 + -1*L_0 == 0,
        Not(0 <= loss_rate_tol),
        Not(0 <= -(2/3)*A_1 + (5/3)*S_1 + -1*S_0 + (2/3)*L_1),
        Not(0 <=
            -2*A_4 + 2*A_3 + S_1 + -1*S_0 + 2*loss_rate_tol)),
     Or(L_1 + -1*L_0 == 0,
        Not(0 <= loss_rate_tol),
        Not(-5 <= -(1/2)*A_1 + (1/2)*S_2 + (1/2)*L_1),
        Not(0 <=
            -2*A_4 +
            2*A_3 +
            -1*A_0 +
            S_2 +
            L_0 +
            2*loss_rate_tol)),
     Or(L_1 + -1*L_0 == 0,
        Not(0 <= loss_rate_tol),
        Not(-5 <= -(1/2)*A_1 + (1/2)*S_2 + (1/2)*L_1),
        Not(0 <=
            -2*A_4 + 2*A_3 + S_2 + -1*S_1 + 2*loss_rate_tol)),
     Or(L_1 + -1*L_0 == 0,
        Not(0 <= loss_rate_tol),
        Not(-5 <= -(1/2)*A_1 + (1/2)*S_2 + (1/2)*L_1),
        Not(-5 <=
            -1*A_4 +
            A_3 +
            -1*A_1 +
            S_2 +
            L_1 +
            loss_rate_tol)),
     Or(L_1 + -1*L_0 == 0,
        Not(0 <= loss_rate_tol),
        Not(-5 <= -(1/2)*A_1 + (1/2)*S_2 + (1/2)*L_1),
        Not(0 <=
            -1*A_4 +
            A_3 +
            A_1 +
            -1*A_0 +
            L_0 +
            -1*L_1 +
            loss_rate_tol),
        Not(0 <=
            -(2/3)*A_4 +
            (2/3)*A_1 +
            -1*A_0 +
            S_2 +
            L_0 +
            (2/3)*loss_rate_tol)),
     Or(L_1 + -1*L_0 == 0,
        Not(0 <= loss_rate_tol),
        Not(0 <=
            -3*A_4 + 3*A_3 + S_3 + -1*S_1 + 3*loss_rate_tol),
        Not(-5 <= -(1/2)*A_1 + (1/2)*S_2 + (1/2)*L_1)),
     Or(L_1 + -1*L_0 == 0,
        Not(0 <= loss_rate_tol),
        Not(-5 <= -(1/2)*A_1 + (1/2)*S_2 + (1/2)*L_1),
        Not(-10 <=
            -1*A_4 +
            A_3 +
            -1*A_1 +
            S_2 +
            L_1 +
            loss_rate_tol),
        Not(-5 <=
            -(1/3)*A_4 +
            -(2/3)*A_1 +
            S_2 +
            L_1 +
            (1/3)*loss_rate_tol)),
     Or(L_1 + -1*L_0 == 0,
        Not(0 <= loss_rate_tol),
        Not(0 <=
            -3*A_4 +
            3*A_3 +
            -1*A_0 +
            S_3 +
            L_0 +
            3*loss_rate_tol),
        Not(-5 <= -(1/2)*A_1 + (1/2)*S_2 + (1/2)*L_1)),
     Or(L_1 + -1*L_0 == 0,
        Not(0 <= loss_rate_tol),
        Not(-5 <= -(1/2)*A_1 + (1/2)*S_2 + (1/2)*L_1),
        Not(0 <=
            -1*A_4 +
            A_3 +
            A_1 +
            -1*A_0 +
            L_0 +
            -1*L_1 +
            loss_rate_tol),
        Not(0 <=
            -(3/2)*A_4 +
            (3/2)*A_2 +
...